files/upTests/__reps/ExplicitVarSizeWithDefault/smaller/0001.eprime.solution
language ESSENCE' 1.0
$ minion Nodes: 5
$ minion TotalTime: 0.000714
$ Savile Row TotalTime: 0.222
letting s_SetExplicitVarSize_tuple2 be [1, 1, 2, 3;int(1..4)]
letting s_SetExplicitVarSize_tuple1 be [false, true, true, true;int(1..4)]
